c Reduced graph for GEOM100a generated by Cyril Grelier
p edge 100 992
e 1 4
e 1 8
e 1 10
e 1 13
e 1 16
e 1 20
e 1 23
e 1 24
e 1 25
e 1 26
e 1 28
e 1 29
e 1 31
e 1 32
e 1 35
e 1 36
e 1 37
e 1 42
e 1 45
e 1 46
e 1 48
e 1 50
e 1 51
e 1 54
e 1 55
e 1 74
e 1 81
e 1 90
e 2 3
e 2 5
e 2 6
e 2 8
e 2 9
e 2 14
e 2 15
e 2 17
e 2 26
e 2 35
e 2 36
e 2 38
e 2 42
e 2 43
e 2 46
e 2 50
e 2 52
e 2 55
e 2 60
e 2 72
e 2 74
e 2 75
e 2 79
e 2 82
e 2 91
e 2 93
e 2 95
e 2 99
e 3 5
e 3 6
e 3 7
e 3 9
e 3 11
e 3 12
e 3 14
e 3 15
e 3 17
e 3 19
e 3 21
e 3 26
e 3 27
e 3 30
e 3 34
e 3 35
e 3 38
e 3 40
e 3 42
e 3 43
e 3 46
e 3 49
e 3 50
e 3 52
e 3 55
e 3 60
e 3 65
e 4 8
e 4 10
e 4 13
e 4 16
e 4 20
e 4 23
e 4 24
e 4 25
e 4 26
e 4 28
e 4 29
e 4 31
e 4 32
e 4 35
e 4 37
e 4 42
e 4 45
e 4 46
e 4 48
e 4 50
e 4 51
e 4 54
e 4 55
e 4 67
e 4 74
e 4 81
e 4 90
e 5 6
e 5 7
e 5 9
e 5 11
e 5 12
e 5 14
e 5 15
e 5 17
e 5 18
e 5 19
e 5 21
e 5 26
e 5 27
e 5 30
e 5 34
e 5 35
e 5 40
e 5 42
e 5 43
e 5 46
e 5 49
e 5 50
e 5 52
e 5 55
e 5 57
e 5 65
e 6 7
e 6 9
e 6 11
e 6 12
e 6 14
e 6 15
e 6 17
e 6 19
e 6 21
e 6 26
e 6 27
e 6 30
e 6 34
e 6 35
e 6 38
e 6 40
e 6 42
e 6 43
e 6 46
e 6 49
e 6 52
e 6 56
e 6 57
e 6 60
e 6 65
e 7 9
e 7 11
e 7 12
e 7 15
e 7 17
e 7 18
e 7 19
e 7 21
e 7 27
e 7 30
e 7 34
e 7 40
e 7 47
e 7 49
e 7 53
e 7 56
e 7 57
e 7 58
e 7 59
e 7 65
e 7 68
e 7 70
e 7 77
e 7 78
e 8 10
e 8 13
e 8 14
e 8 16
e 8 20
e 8 23
e 8 24
e 8 25
e 8 26
e 8 28
e 8 29
e 8 31
e 8 32
e 8 35
e 8 36
e 8 42
e 8 46
e 8 48
e 8 50
e 8 51
e 8 55
e 8 74
e 8 81
e 8 90
e 9 11
e 9 12
e 9 14
e 9 15
e 9 17
e 9 18
e 9 19
e 9 21
e 9 26
e 9 27
e 9 30
e 9 34
e 9 35
e 9 40
e 9 42
e 9 43
e 9 46
e 9 49
e 9 52
e 9 56
e 9 57
e 9 65
e 10 13
e 10 16
e 10 20
e 10 23
e 10 24
e 10 25
e 10 28
e 10 29
e 10 31
e 10 32
e 10 37
e 10 45
e 10 48
e 10 51
e 10 54
e 10 55
e 10 67
e 10 74
e 10 80
e 10 81
e 10 88
e 10 90
e 10 94
e 10 97
e 11 12
e 11 18
e 11 19
e 11 21
e 11 27
e 11 30
e 11 34
e 11 35
e 11 40
e 11 47
e 11 53
e 11 56
e 11 57
e 11 58
e 11 59
e 11 66
e 11 68
e 11 69
e 11 70
e 11 77
e 11 78
e 11 98
e 12 18
e 12 19
e 12 21
e 12 27
e 12 30
e 12 34
e 12 40
e 12 47
e 12 53
e 12 56
e 12 57
e 12 58
e 12 59
e 12 65
e 12 68
e 12 69
e 12 70
e 12 77
e 12 78
e 12 98
e 13 16
e 13 20
e 13 23
e 13 24
e 13 25
e 13 28
e 13 29
e 13 31
e 13 32
e 13 37
e 13 45
e 13 48
e 13 50
e 13 51
e 13 54
e 13 55
e 13 61
e 13 67
e 13 80
e 13 88
e 13 89
e 13 94
e 14 15
e 14 17
e 14 26
e 14 35
e 14 36
e 14 38
e 14 42
e 14 43
e 14 46
e 14 50
e 14 52
e 14 55
e 14 60
e 14 72
e 14 75
e 14 79
e 14 82
e 14 91
e 14 93
e 14 95
e 15 17
e 15 19
e 15 26
e 15 27
e 15 30
e 15 36
e 15 38
e 15 42
e 15 43
e 15 46
e 15 49
e 15 52
e 15 60
e 15 65
e 15 72
e 15 75
e 15 79
e 15 82
e 16 20
e 16 23
e 16 24
e 16 25
e 16 26
e 16 28
e 16 31
e 16 32
e 16 36
e 16 37
e 16 45
e 16 48
e 16 50
e 16 51
e 16 54
e 16 55
e 16 67
e 16 74
e 16 81
e 16 90
e 17 19
e 17 26
e 17 27
e 17 30
e 17 34
e 17 35
e 17 38
e 17 42
e 17 43
e 17 46
e 17 49
e 17 52
e 17 60
e 17 65
e 17 72
e 17 75
e 17 79
e 18 19
e 18 21
e 18 27
e 18 30
e 18 34
e 18 40
e 18 47
e 18 53
e 18 56
e 18 57
e 18 58
e 18 59
e 18 62
e 18 66
e 18 68
e 18 69
e 18 70
e 18 77
e 18 78
e 18 98
e 19 27
e 19 30
e 19 34
e 19 40
e 19 43
e 19 47
e 19 49
e 19 53
e 19 56
e 19 57
e 19 65
e 19 68
e 19 77
e 19 78
e 20 23
e 20 24
e 20 25
e 20 28
e 20 29
e 20 31
e 20 32
e 20 37
e 20 45
e 20 48
e 20 51
e 20 54
e 20 67
e 20 80
e 20 88
e 20 89
e 20 94
e 20 97
e 21 22
e 21 23
e 21 26
e 21 29
e 21 32
e 21 35
e 21 42
e 21 46
e 21 50
e 21 55
e 21 58
e 21 59
e 21 61
e 21 62
e 21 66
e 21 70
e 22 23
e 22 29
e 22 33
e 22 39
e 22 41
e 22 44
e 22 58
e 22 59
e 22 61
e 22 62
e 22 63
e 22 64
e 22 66
e 22 71
e 22 73
e 22 76
e 22 83
e 22 84
e 22 85
e 22 86
e 22 87
e 22 92
e 22 96
e 23 24
e 23 26
e 23 29
e 23 31
e 23 32
e 23 35
e 23 39
e 23 42
e 23 46
e 23 50
e 23 55
e 23 61
e 23 71
e 23 87
e 23 89
e 24 25
e 24 28
e 24 29
e 24 31
e 24 32
e 24 37
e 24 45
e 24 51
e 24 54
e 24 67
e 24 80
e 24 88
e 24 89
e 24 94
e 24 97
e 25 28
e 25 31
e 25 37
e 25 45
e 25 48
e 25 51
e 25 54
e 25 67
e 25 74
e 25 80
e 25 81
e 25 88
e 25 90
e 25 94
e 25 97
e 26 32
e 26 35
e 26 36
e 26 38
e 26 42
e 26 46
e 26 50
e 26 55
e 26 74
e 27 30
e 27 34
e 27 40
e 27 43
e 27 49
e 27 52
e 27 53
e 27 56
e 27 57
e 27 65
e 27 68
e 27 78
e 28 29
e 28 31
e 28 32
e 28 37
e 28 45
e 28 48
e 28 51
e 28 54
e 28 67
e 28 80
e 28 88
e 28 89
e 28 94
e 28 97
e 29 31
e 29 32
e 29 35
e 29 39
e 29 50
e 29 55
e 29 61
e 29 64
e 29 71
e 29 86
e 29 87
e 29 89
e 30 34
e 30 40
e 30 43
e 30 49
e 30 52
e 30 56
e 30 57
e 30 65
e 30 68
e 30 78
e 31 32
e 31 35
e 31 37
e 31 48
e 31 50
e 31 55
e 31 61
e 31 71
e 31 87
e 31 89
e 32 35
e 32 42
e 32 46
e 32 48
e 32 50
e 32 55
e 32 61
e 32 71
e 33 39
e 33 41
e 33 44
e 33 58
e 33 59
e 33 61
e 33 62
e 33 63
e 33 64
e 33 66
e 33 69
e 33 71
e 33 73
e 33 76
e 33 83
e 33 84
e 33 85
e 33 86
e 33 87
e 33 92
e 33 96
e 34 40
e 34 47
e 34 49
e 34 53
e 34 56
e 34 57
e 34 65
e 34 68
e 34 77
e 34 78
e 35 42
e 35 46
e 35 50
e 35 55
e 35 58
e 36 38
e 36 42
e 36 46
e 36 48
e 36 60
e 36 72
e 36 74
e 36 75
e 36 79
e 36 82
e 36 90
e 36 91
e 36 93
e 36 95
e 36 99
e 37 45
e 37 48
e 37 51
e 37 54
e 37 67
e 37 80
e 37 81
e 37 88
e 37 90
e 37 94
e 37 97
e 38 42
e 38 43
e 38 49
e 38 52
e 38 60
e 38 72
e 38 75
e 38 79
e 38 82
e 38 91
e 38 93
e 38 95
e 38 99
e 39 41
e 39 44
e 39 61
e 39 62
e 39 63
e 39 64
e 39 71
e 39 73
e 39 76
e 39 84
e 39 85
e 39 86
e 39 87
e 39 89
e 39 92
e 39 96
e 39 100
e 40 47
e 40 49
e 40 53
e 40 56
e 40 57
e 40 65
e 40 68
e 40 77
e 40 78
e 41 44
e 41 58
e 41 59
e 41 61
e 41 62
e 41 63
e 41 64
e 41 66
e 41 69
e 41 71
e 41 73
e 41 76
e 41 83
e 41 84
e 41 85
e 41 86
e 41 92
e 41 96
e 42 46
e 42 50
e 42 55
e 43 49
e 43 52
e 43 60
e 43 65
e 43 72
e 43 75
e 43 79
e 43 82
e 43 91
e 44 58
e 44 59
e 44 61
e 44 62
e 44 63
e 44 64
e 44 66
e 44 69
e 44 71
e 44 73
e 44 76
e 44 83
e 44 84
e 44 85
e 44 86
e 44 92
e 44 96
e 45 48
e 45 51
e 45 54
e 45 67
e 45 74
e 45 80
e 45 81
e 45 88
e 45 90
e 45 94
e 45 97
e 46 50
e 46 55
e 47 53
e 47 56
e 47 58
e 47 59
e 47 62
e 47 66
e 47 68
e 47 69
e 47 70
e 47 77
e 47 78
e 47 83
e 47 98
e 48 51
e 48 54
e 48 67
e 48 74
e 48 81
e 48 90
e 49 52
e 49 56
e 49 57
e 49 60
e 49 65
e 49 72
e 50 55
e 50 61
e 51 54
e 51 67
e 51 74
e 51 80
e 51 81
e 51 88
e 51 90
e 52 60
e 52 65
e 52 72
e 52 75
e 52 79
e 52 82
e 52 91
e 53 56
e 53 57
e 53 58
e 53 59
e 53 66
e 53 68
e 53 69
e 53 70
e 53 77
e 53 78
e 53 98
e 54 67
e 54 80
e 54 81
e 54 88
e 54 90
e 54 94
e 54 97
e 56 57
e 56 65
e 56 68
e 56 77
e 56 78
e 57 65
e 57 68
e 57 77
e 57 78
e 58 59
e 58 62
e 58 63
e 58 66
e 58 69
e 58 70
e 58 83
e 59 62
e 59 63
e 59 66
e 59 69
e 59 70
e 59 83
e 59 98
e 60 72
e 60 75
e 60 79
e 60 82
e 60 91
e 60 93
e 60 95
e 60 99
e 61 62
e 61 64
e 61 71
e 61 86
e 61 87
e 61 89
e 61 100
e 62 63
e 62 66
e 62 69
e 62 70
e 62 83
e 62 84
e 62 85
e 63 66
e 63 69
e 63 70
e 63 73
e 63 76
e 63 83
e 63 84
e 63 85
e 63 92
e 63 96
e 64 71
e 64 73
e 64 76
e 64 84
e 64 85
e 64 86
e 64 87
e 64 89
e 64 92
e 64 96
e 64 100
e 66 69
e 66 70
e 66 83
e 66 84
e 66 85
e 67 80
e 67 81
e 67 88
e 67 94
e 67 97
e 68 70
e 68 77
e 68 78
e 68 98
e 69 70
e 69 77
e 69 83
e 69 98
e 70 77
e 70 83
e 70 98
e 71 73
e 71 76
e 71 86
e 71 87
e 71 89
e 71 100
e 72 75
e 72 79
e 72 82
e 72 91
e 72 93
e 72 95
e 72 99
e 73 76
e 73 84
e 73 85
e 73 86
e 73 87
e 73 92
e 73 96
e 73 100
e 74 81
e 74 90
e 74 93
e 74 95
e 75 79
e 75 82
e 75 91
e 75 93
e 75 95
e 75 99
e 76 84
e 76 85
e 76 86
e 76 87
e 76 92
e 76 96
e 76 100
e 77 78
e 77 98
e 78 98
e 79 82
e 79 91
e 79 93
e 79 95
e 79 99
e 80 81
e 80 88
e 80 94
e 80 97
e 81 90
e 82 91
e 82 93
e 82 95
e 82 99
e 83 84
e 83 85
e 83 98
e 84 85
e 84 92
e 84 96
e 85 92
e 85 96
e 86 87
e 86 89
e 86 92
e 86 100
e 87 89
e 87 100
e 88 94
e 88 97
e 89 100
e 91 93
e 91 95
e 91 99
e 92 96
e 93 95
e 93 99
e 94 97
e 95 99
